(declare-const a Real)
(declare-const b Real)
(declare-const c Real)
(assert (= (+ a b c) 3))
(assert (> a 0))
(assert (> b 0))
(assert (> c 0))
(assert (not (<= (+ (* (pow (* (pow c (* 81668096 (pow a 4))) (pow (* b (pow a 3)) (* 88080384 b))) (pow (+ (* 81668096 (pow a 4)) (* 88080384 b)) -1)) (+ (* -88080384 b) (* -81668096 (pow a 4)))) (* -289406976 a (pow c 4)) (* -289406976 b (pow a 4)) (* -274606080 c (pow b 4)) (* -96468992 a (pow b 4)) (* -96468992 b (pow c 4)) (* -88080384 (pow a 2) (pow c 3)) (* 62914560 (pow b 3) (pow c 2)) (* 88080384 (pow a 2) (pow b 3)) (* 88080384 (pow b 2) (pow c 3)) (* 239075328 (pow a 3) (pow c 2)) (* 2985984 c (pow a 2) (pow b 2)) (* 234881024 a b (pow c 3)) (* 294084608 a c (pow b 3)) (* 294084608 b c (pow a 3))) 0)))
(check-sat)
(get-model)
(exit)